119 300 21 42 9 92 53 10 90 78 67 80 28 66 35 100 8 55 93 43 22 47 55 6 7 86 75 83 69 72 72 55 42 44 49 50 35 53 12 76 82 78 8 10 95 94 61 2 100 6 96 22 52 50 27 58 87 54 92 8 77 64 14 19 59 62 68 46 67 31 73 48 8 80 57 54 74 70 8 73 75 3 46 26 53 25 35 91 78 27 98 54 42 12 72 52 25 92 97 91 22 70 91 82 1 99 87 74 68 94 99 42 97 96 19 1 20 54 91 97 32 